data;
set K:= K1 K2 K3 K4 K5 K6 K7 ;

set F:= F1 F2 ;

set Q:= Q1 Q2 ;

param T:= 45;
param V: 
	K1  K2  K3  K4  K5  K6  K7  :=
Q1	1   1   1   1   0   0   0   
Q2	0   0   0   0   1   1   1   
; # if resorce k is of type q

param TF:= 
K1 6
K2 6
K3 6
K4 6
K5 12
K6 12
K7 12
; # number of continuous time slots resource can fly

param TR:= 
K1 2
K2 2
K3 2
K4 2
K5 4
K6 4
K7 4
; #  number of continuous time slots resource k needs to rest between flights

param P:= 
K1 36
K2 36
K3 36
K4 36
K5 36
K6 36
K7 36
; #  number of continuous time slots a pilot can be present including rest times for resource k 

param N:= 
K1 4
K2 4
K3 4
K4 4
K5 2
K6 2
K7 2
; # max number of flights resource k can fly in the total time period

param A: 
	K1  K2  K3  K4  K5  K6  K7  :=
1	1   1   1   1   1   1   1   
2	1   1   1   1   1   1   1   
3	1   1   1   1   1   1   1   
4	1   1   1   1   1   1   1   
5	1   1   1   1   1   1   1   
6	1   1   1   1   1   1   1   
7	1   1   1   1   1   1   1   
8	1   1   1   1   1   1   1   
9	1   1   1   1   1   1   1   
10	1   1   1   1   1   1   1   
11	1   1   1   1   1   1   1   
12	1   1   1   1   1   1   1   
13	1   1   1   1   1   1   1   
14	1   1   1   1   1   1   1   
15	1   1   1   1   1   1   1   
16	1   1   1   1   1   1   1   
17	1   1   1   1   1   1   1   
18	1   1   1   1   1   1   1   
19	1   1   1   1   1   1   1   
20	1   1   1   1   1   1   1   
21	1   1   1   1   1   1   1   
22	1   1   1   1   1   1   1   
23	1   1   1   1   1   1   1   
24	1   1   1   1   1   1   1   
25	1   1   1   1   1   1   1   
26	1   1   1   1   1   1   1   
27	1   1   1   1   1   1   1   
28	1   1   1   1   1   1   1   
29	1   1   1   1   1   1   1   
30	1   1   1   1   1   1   1   
31	1   1   1   1   1   1   1   
32	1   1   1   1   1   1   1   
33	1   1   1   1   1   1   1   
34	1   1   1   1   1   1   1   
35	1   1   1   1   1   1   1   
36	1   1   1   1   1   1   1   
37	1   1   1   1   1   1   1   
38	1   1   1   1   1   1   1   
39	1   1   1   1   1   1   1   
40	1   1   1   1   1   1   1   
41	1   1   1   1   1   1   1   
42	1   1   1   1   1   1   1   
43	1   1   1   1   1   1   1   
44	1   1   1   1   1   1   1   
45	1   1   1   1   1   1   1   
; # availability of resorce k in time slot t

param B: 
	F1  F2  :=
Q1	0   0   
Q2	0   0   
; # if front f requires resources of type q

param U: 
	F1  F2  :=
K1	0   0   
K2	0   0   
K3	0   0   
K4	0   0   
K5	2   2   
K6	0   0   
K7	1   1   
; # transit time of resource

param C:= 
K1 900
K2 900
K3 1500
K4 4500
K5 5500
K6 5500
K7 5500
; #  water capacity of resource k

param S:= 
F1 10
F2 9
; # max number of resources that can fly at front f in the same time slot

param D:= 

[*,*,F1 ]:  K1    K2    K3    K4    K5    K6    K7    :=
1           1.82  1.82  1.82  1.45  1.09  1.09  1.09  
2           1.82  1.82  1.82  1.45  1.09  1.09  1.09  
3           1.82  1.82  1.82  1.45  1.09  1.09  1.09  
4           1.82  1.82  1.82  1.45  1.09  1.09  1.09  
5           1.82  1.82  1.82  1.45  1.09  1.09  1.09  
6           1.82  1.82  1.82  1.45  1.09  1.09  1.09  
7           1.82  1.82  1.82  1.45  1.09  1.09  1.09  
8           1.82  1.82  1.82  1.45  1.09  1.09  1.09  
9           1.82  1.82  1.82  1.45  1.09  1.09  1.09  
10          1.82  1.82  1.82  1.45  1.09  1.09  1.09  
11          1.82  1.82  1.82  1.45  1.09  1.09  1.09  
12          1.82  1.82  1.82  1.45  1.09  1.09  1.09  
13          1.82  1.82  1.82  1.45  1.09  1.09  1.09  
14          1.82  1.82  1.82  1.45  1.09  1.09  1.09  
15          1.82  1.82  1.82  1.45  1.09  1.09  1.09  
16          1.82  1.82  1.82  1.45  1.09  1.09  1.09  
17          1.82  1.82  1.82  1.45  1.09  1.09  1.09  
18          1.82  1.82  1.82  1.45  1.09  1.09  1.09  
19          1.82  1.82  1.82  1.45  1.09  1.09  1.09  
20          1.82  1.82  1.82  1.45  1.09  1.09  1.09  
21          1.82  1.82  1.82  1.45  1.09  1.09  1.09  
22          1.82  1.82  1.82  1.45  1.09  1.09  1.09  
23          1.82  1.82  1.82  1.45  1.09  1.09  1.09  
24          1.82  1.82  1.82  1.45  1.09  1.09  1.09  
25          1.73  1.73  1.73  1.38  1.04  1.04  1.04  
26          1.73  1.73  1.73  1.38  1.04  1.04  1.04  
27          1.73  1.73  1.73  1.38  1.04  1.04  1.04  
28          1.73  1.73  1.73  1.38  1.04  1.04  1.04  
29          1.73  1.73  1.73  1.38  1.04  1.04  1.04  
30          1.73  1.73  1.73  1.38  1.04  1.04  1.04  
31          1.73  1.73  1.73  1.38  1.04  1.04  1.04  
32          1.73  1.73  1.73  1.38  1.04  1.04  1.04  
33          1.73  1.73  1.73  1.38  1.04  1.04  1.04  
34          1.82  1.82  1.82  1.45  1.09  1.09  1.09  
35          1.82  1.82  1.82  1.45  1.09  1.09  1.09  
36          1.82  1.82  1.82  1.45  1.09  1.09  1.09  
37          1.82  1.82  1.82  1.45  1.09  1.09  1.09  
38          1.82  1.82  1.82  1.45  1.09  1.09  1.09  
39          1.82  1.82  1.82  1.45  1.09  1.09  1.09  
40          1.82  1.82  1.82  1.45  1.09  1.09  1.09  
41          1.82  1.82  1.82  1.45  1.09  1.09  1.09  
42          1.82  1.82  1.82  1.45  1.09  1.09  1.09  
43          1.82  1.82  1.82  1.45  1.09  1.09  1.09  
44          1.82  1.82  1.82  1.45  1.09  1.09  1.09  
45          1.82  1.82  1.82  1.45  1.09  1.09  1.09  

[*,*,F2 ]:  K1    K2    K3    K4    K5    K6    K7    :=
1           1.45  1.45  1.45  1.16  0.87  0.87  0.87  
2           1.45  1.45  1.45  1.16  0.87  0.87  0.87  
3           1.45  1.45  1.45  1.16  0.87  0.87  0.87  
4           1.45  1.45  1.45  1.16  0.87  0.87  0.87  
5           1.45  1.45  1.45  1.16  0.87  0.87  0.87  
6           1.45  1.45  1.45  1.16  0.87  0.87  0.87  
7           1.45  1.45  1.45  1.16  0.87  0.87  0.87  
8           1.45  1.45  1.45  1.16  0.87  0.87  0.87  
9           1.45  1.45  1.45  1.16  0.87  0.87  0.87  
10          1.45  1.45  1.45  1.16  0.87  0.87  0.87  
11          1.45  1.45  1.45  1.16  0.87  0.87  0.87  
12          1.45  1.45  1.45  1.16  0.87  0.87  0.87  
13          1.45  1.45  1.45  1.16  0.87  0.87  0.87  
14          1.45  1.45  1.45  1.16  0.87  0.87  0.87  
15          1.45  1.45  1.45  1.16  0.87  0.87  0.87  
16          1.45  1.45  1.45  1.16  0.87  0.87  0.87  
17          1.45  1.45  1.45  1.16  0.87  0.87  0.87  
18          1.45  1.45  1.45  1.16  0.87  0.87  0.87  
19          1.45  1.45  1.45  1.16  0.87  0.87  0.87  
20          1.45  1.45  1.45  1.16  0.87  0.87  0.87  
21          1.45  1.45  1.45  1.16  0.87  0.87  0.87  
22          1.45  1.45  1.45  1.16  0.87  0.87  0.87  
23          1.45  1.45  1.45  1.16  0.87  0.87  0.87  
24          1.45  1.45  1.45  1.16  0.87  0.87  0.87  
25          1.38  1.38  1.38  1.10  0.83  0.83  0.83  
26          1.38  1.38  1.38  1.10  0.83  0.83  0.83  
27          1.38  1.38  1.38  1.10  0.83  0.83  0.83  
28          1.38  1.38  1.38  1.10  0.83  0.83  0.83  
29          1.38  1.38  1.38  1.10  0.83  0.83  0.83  
30          1.38  1.38  1.38  1.10  0.83  0.83  0.83  
31          1.38  1.38  1.38  1.10  0.83  0.83  0.83  
32          1.38  1.38  1.38  1.10  0.83  0.83  0.83  
33          1.38  1.38  1.38  1.10  0.83  0.83  0.83  
34          1.45  1.45  1.45  1.16  0.87  0.87  0.87  
35          1.45  1.45  1.45  1.16  0.87  0.87  0.87  
36          1.45  1.45  1.45  1.16  0.87  0.87  0.87  
37          1.45  1.45  1.45  1.16  0.87  0.87  0.87  
38          1.45  1.45  1.45  1.16  0.87  0.87  0.87  
39          1.45  1.45  1.45  1.16  0.87  0.87  0.87  
40          1.45  1.45  1.45  1.16  0.87  0.87  0.87  
41          1.45  1.45  1.45  1.16  0.87  0.87  0.87  
42          1.45  1.45  1.45  1.16  0.87  0.87  0.87  
43          1.45  1.45  1.45  1.16  0.87  0.87  0.87  
44          1.45  1.45  1.45  1.16  0.87  0.87  0.87  
45          1.45  1.45  1.45  1.16  0.87  0.87  0.87  
; # downloads resource k can do at front f in time t if intermediate time slot

param E:= 

[*,*,F1 ]:  K1    K2    K3    K4    K5    K6    K7    :=
1           0.73  0.27  0.13  0.28  0.49  0.51  0.15  
2           0.73  0.27  0.13  0.28  0.49  0.51  0.15  
3           0.73  0.27  0.13  0.28  0.49  0.51  0.15  
4           0.73  0.27  0.13  0.28  0.49  0.51  0.15  
5           0.73  0.27  0.13  0.28  0.49  0.51  0.15  
6           0.73  0.27  0.13  0.28  0.49  0.51  0.15  
7           0.73  0.27  0.13  0.28  0.49  0.51  0.15  
8           0.73  0.27  0.13  0.28  0.49  0.51  0.15  
9           0.73  0.27  0.13  0.28  0.49  0.51  0.15  
10          0.73  0.27  0.13  0.28  0.49  0.51  0.15  
11          0.73  0.27  0.13  0.28  0.49  0.51  0.15  
12          0.73  0.27  0.13  0.28  0.49  0.51  0.15  
13          0.73  0.27  0.13  0.28  0.49  0.51  0.15  
14          0.73  0.27  0.13  0.28  0.49  0.51  0.15  
15          0.73  0.27  0.13  0.28  0.49  0.51  0.15  
16          0.73  0.27  0.13  0.28  0.49  0.51  0.15  
17          0.73  0.27  0.13  0.28  0.49  0.51  0.15  
18          0.73  0.27  0.13  0.28  0.49  0.51  0.15  
19          0.73  0.27  0.13  0.28  0.49  0.51  0.15  
20          0.73  0.27  0.13  0.28  0.49  0.51  0.15  
21          0.73  0.27  0.13  0.28  0.49  0.51  0.15  
22          0.73  0.27  0.13  0.28  0.49  0.51  0.15  
23          0.73  0.27  0.13  0.28  0.49  0.51  0.15  
24          0.73  0.27  0.13  0.28  0.49  0.51  0.15  
25          0.69  0.26  0.12  0.26  0.47  0.49  0.14  
26          0.69  0.26  0.12  0.26  0.47  0.49  0.14  
27          0.69  0.26  0.12  0.26  0.47  0.49  0.14  
28          0.69  0.26  0.12  0.26  0.47  0.49  0.14  
29          0.69  0.26  0.12  0.26  0.47  0.49  0.14  
30          0.69  0.26  0.12  0.26  0.47  0.49  0.14  
31          0.69  0.26  0.12  0.26  0.47  0.49  0.14  
32          0.69  0.26  0.12  0.26  0.47  0.49  0.14  
33          0.69  0.26  0.12  0.26  0.47  0.49  0.14  
34          0.73  0.27  0.13  0.28  0.49  0.51  0.15  
35          0.73  0.27  0.13  0.28  0.49  0.51  0.15  
36          0.73  0.27  0.13  0.28  0.49  0.51  0.15  
37          0.73  0.27  0.13  0.28  0.49  0.51  0.15  
38          0.73  0.27  0.13  0.28  0.49  0.51  0.15  
39          0.73  0.27  0.13  0.28  0.49  0.51  0.15  
40          0.73  0.27  0.13  0.28  0.49  0.51  0.15  
41          0.73  0.27  0.13  0.28  0.49  0.51  0.15  
42          0.73  0.27  0.13  0.28  0.49  0.51  0.15  
43          0.73  0.27  0.13  0.28  0.49  0.51  0.15  
44          0.73  0.27  0.13  0.28  0.49  0.51  0.15  
45          0.73  0.27  0.13  0.28  0.49  0.51  0.15  

[*,*,F2 ]:  K1    K2    K3    K4    K5    K6    K7    :=
1           0.60  0.31  0.19  0.15  0.37  0.34  0.11  
2           0.60  0.31  0.19  0.15  0.37  0.34  0.11  
3           0.60  0.31  0.19  0.15  0.37  0.34  0.11  
4           0.60  0.31  0.19  0.15  0.37  0.34  0.11  
5           0.60  0.31  0.19  0.15  0.37  0.34  0.11  
6           0.60  0.31  0.19  0.15  0.37  0.34  0.11  
7           0.60  0.31  0.19  0.15  0.37  0.34  0.11  
8           0.60  0.31  0.19  0.15  0.37  0.34  0.11  
9           0.60  0.31  0.19  0.15  0.37  0.34  0.11  
10          0.60  0.31  0.19  0.15  0.37  0.34  0.11  
11          0.60  0.31  0.19  0.15  0.37  0.34  0.11  
12          0.60  0.31  0.19  0.15  0.37  0.34  0.11  
13          0.60  0.31  0.19  0.15  0.37  0.34  0.11  
14          0.60  0.31  0.19  0.15  0.37  0.34  0.11  
15          0.60  0.31  0.19  0.15  0.37  0.34  0.11  
16          0.60  0.31  0.19  0.15  0.37  0.34  0.11  
17          0.60  0.31  0.19  0.15  0.37  0.34  0.11  
18          0.60  0.31  0.19  0.15  0.37  0.34  0.11  
19          0.60  0.31  0.19  0.15  0.37  0.34  0.11  
20          0.60  0.31  0.19  0.15  0.37  0.34  0.11  
21          0.60  0.31  0.19  0.15  0.37  0.34  0.11  
22          0.60  0.31  0.19  0.15  0.37  0.34  0.11  
23          0.60  0.31  0.19  0.15  0.37  0.34  0.11  
24          0.60  0.31  0.19  0.15  0.37  0.34  0.11  
25          0.57  0.29  0.18  0.14  0.36  0.32  0.11  
26          0.57  0.29  0.18  0.14  0.36  0.32  0.11  
27          0.57  0.29  0.18  0.14  0.36  0.32  0.11  
28          0.57  0.29  0.18  0.14  0.36  0.32  0.11  
29          0.57  0.29  0.18  0.14  0.36  0.32  0.11  
30          0.57  0.29  0.18  0.14  0.36  0.32  0.11  
31          0.57  0.29  0.18  0.14  0.36  0.32  0.11  
32          0.57  0.29  0.18  0.14  0.36  0.32  0.11  
33          0.57  0.29  0.18  0.14  0.36  0.32  0.11  
34          0.60  0.31  0.19  0.15  0.37  0.34  0.11  
35          0.60  0.31  0.19  0.15  0.37  0.34  0.11  
36          0.60  0.31  0.19  0.15  0.37  0.34  0.11  
37          0.60  0.31  0.19  0.15  0.37  0.34  0.11  
38          0.60  0.31  0.19  0.15  0.37  0.34  0.11  
39          0.60  0.31  0.19  0.15  0.37  0.34  0.11  
40          0.60  0.31  0.19  0.15  0.37  0.34  0.11  
41          0.60  0.31  0.19  0.15  0.37  0.34  0.11  
42          0.60  0.31  0.19  0.15  0.37  0.34  0.11  
43          0.60  0.31  0.19  0.15  0.37  0.34  0.11  
44          0.60  0.31  0.19  0.15  0.37  0.34  0.11  
45          0.60  0.31  0.19  0.15  0.37  0.34  0.11  
; # downloads resource k can do at front f in time t if starting or ending flight

param W: 
	F1        F2        :=
1	905.39    905.39    
2	3621.56   3621.56   
3	3621.56   3621.56   
4	3621.56   3621.56   
5	3621.56   3621.56   
6	3621.56   3621.56   
7	3621.56   3621.56   
8	3621.56   3621.56   
9	3621.56   3621.56   
10	3621.56   3621.56   
11	3621.56   3621.56   
12	3621.56   3621.56   
13	3621.56   3621.56   
14	3621.56   3621.56   
15	3621.56   3621.56   
16	3621.56   3621.56   
17	3621.56   3621.56   
18	3621.56   3621.56   
19	1609.58   1609.58   
20	1609.58   1609.58   
21	1609.58   1609.58   
22	1609.58   1609.58   
23	1609.58   1609.58   
24	1609.58   1609.58   
25	1609.58   1609.58   
26	1609.58   1609.58   
27	1609.58   1609.58   
28	1609.58   1609.58   
29	1609.58   1609.58   
30	1609.58   1609.58   
31	1609.58   1609.58   
32	1609.58   1609.58   
33	1609.58   1609.58   
34	1609.58   1609.58   
35	1609.58   1609.58   
36	1609.58   1609.58   
37	1609.58   1609.58   
38	1609.58   1609.58   
39	1609.58   1609.58   
40	1609.58   1609.58   
41	1609.58   1609.58   
42	1609.58   1609.58   
43	1609.58   1609.58   
44	1609.58   1609.58   
45	402.40    402.40    
; # water needed at front f in time slot t

param M := 100000000; 

param a1:= 10000000;

param a2:= 100;

param a3:= 0.0001;
